(set-info :smt-lib-version 2.6)
(set-logic QF_NRA)
(set-info :source |
Generated by: Ali K. Uncu, Matthew England, and James H. Davenport
Generated on: 2022-01-05

Generator: SUMCracker-ProveInequality function by Manuel Kauers ("https://www3.risc.jku.at/research/combinat/software/ergosum/RISC/SumCracker.html")
Translated to SMT-Lib by Maple SMTLIB package.

Application: CAD calls of In[19] on page 12 in
M. Kauers, SumCracker: A Package for Manipulating Symbolic Sums and Related Objects, 
Journal of Symbolic Computation 41(9), 2006, pp. 1039-1057. 
(https://www.sciencedirect.com/science/article/pii/S0747717106000502)
|)
(set-info :license "https://creativecommons.org/licenses/by/4.0/")
(set-info :status unsat)
(set-info :category "industrial")

(declare-fun V1 () Real)
(declare-fun V2 () Real)
(declare-fun x () Real)
(assert (and (<= (- 2) x) (<= 0 V1) (<= 0 (+ 1 V1)) (<= 0 (+ 2 V1)) (<= (+ (* x V1) 1) V2) (<= (+ (* x V1) x 1) (+ (* x V2) V2)) (< (+ (* (* x x) V2) (* (* x V2) 2) V2) (+ (* x V1) (* x 2) 1))))
(check-sat)
(exit)











